solving instance mcnd arcs c36 3 6 square
presolving:
(round 1, fast)       20 del vars, 20 del conss, 0 add conss, 524 chg bounds, 0 chg sides, 0 chg coeffs, 0 upgd conss, 0 impls, 0 clqs
(round 2, fast)       40 del vars, 20 del conss, 0 add conss, 524 chg bounds, 0 chg sides, 294 chg coeffs, 0 upgd conss, 0 impls, 0 clqs
(round 3, exhaustive) 40 del vars, 20 del conss, 0 add conss, 524 chg bounds, 0 chg sides, 294 chg coeffs, 9430 upgd conss, 0 impls, 0 clqs
   (0.2s) probing: 51/230 (22.2%) - 0 fixings, 0 aggregations, 0 implications, 0 bound changes
   (0.2s) probing aborted: 50/50 successive totally useless probings
   (0.2s) symmetry computation started: requiring (bin +, int +, cont +), (fixed: bin -, int -, cont -)
   (0.3s) no symmetry present (symcode time: 0.02)
presolving (4 rounds: 4 fast, 2 medium, 2 exhaustive):
 40 deleted vars, 20 deleted constraints, 0 added constraints, 524 tightened bounds, 0 added holes, 0 changed sides, 0 changed coefficients
 9430 implications, 0 cliques
presolved problem has 9890 variables (230 bin, 0 int, 0 impl, 9660 cont) and 10940 constraints
   9430 constraints of type <varbound>
   1280 constraints of type <linear>
    230 constraints of type <nonlinear>
Presolving Time: 0.22

 time | node  | left  |LP iter|LP it/n|mem/heur|mdpt |vars |cons |rows |cuts |sepa|confs|strbr|  dualbound   | primalbound  |  gap   | compl. 
t18.1s|     1 |     0 | 34614 |     - |  trysol|   0 |  10k|  10k|  11k|   0 |  0 |   0 |   0 |-4.386902e-04 | 6.931007e+05 |    Inf | unknown
 37.8s|     1 |     0 | 60268 |     - |    90M |   0 |  10k|  10k|  11k|   0 |  0 |   0 |   0 | 2.006696e+05 | 6.931007e+05 | 245.39%| unknown
t45.8s|     1 |     0 | 71850 |     - |  trysol|   0 |  10k|  10k|  11k|   0 |  0 |   0 |   0 | 2.006696e+05 | 6.383103e+05 | 218.09%| unknown
 55.5s|     1 |     0 | 83775 |     - |    94M |   0 |  10k|  10k|  11k| 207 |  1 |   0 |   0 | 2.509285e+05 | 6.383103e+05 | 154.38%| unknown
t56.4s|     1 |     0 | 83775 |     - |  trysol|   0 |  10k|  10k|  11k| 207 |  1 |   0 |   0 | 2.509285e+05 | 5.169951e+05 | 106.03%| unknown
 56.4s|     1 |     0 | 83775 |     - |    94M |   0 |  10k|  10k|  11k| 207 |  1 |   0 |   0 | 2.509285e+05 | 5.169951e+05 | 106.03%| unknown
 56.4s|     1 |     0 | 83775 |     - |    94M |   0 |  10k|  10k|  11k| 207 |  1 |   0 |   0 | 2.509285e+05 | 5.169951e+05 | 106.03%| unknown
 63.4s|     1 |     0 | 94291 |     - |    95M |   0 |  10k|  10k|  11k| 344 |  2 |   0 |   0 | 2.878622e+05 | 5.169951e+05 |  79.60%| unknown
t63.5s|     1 |     0 | 94291 |     - |  trysol|   0 |  10k|  10k|  11k| 344 |  2 |   0 |   0 | 2.878622e+05 | 4.538025e+05 |  57.65%| unknown
 71.2s|     1 |     0 |104661 |     - |    97M |   0 |  10k|  10k|  12k| 443 |  3 |   0 |   0 | 3.158680e+05 | 4.538025e+05 |  43.67%| unknown
t72.2s|     1 |     0 |104661 |     - |  trysol|   0 |  10k|  10k|  12k| 443 |  3 |   0 |   0 | 3.158680e+05 | 4.454121e+05 |  41.01%| unknown
 72.2s|     1 |     0 |104661 |     - |    97M |   0 |  10k|  10k|  12k| 443 |  3 |   0 |   0 | 3.158680e+05 | 4.454121e+05 |  41.01%| unknown
 76.4s|     1 |     0 |112517 |     - |    99M |   0 |  10k|  10k|  12k| 533 |  4 |   0 |   0 | 3.330227e+05 | 4.454121e+05 |  33.75%| unknown
t76.5s|     1 |     0 |112517 |     - |  trysol|   0 |  10k|  10k|  12k| 533 |  4 |   0 |   0 | 3.330227e+05 | 4.332491e+05 |  30.10%| unknown
 77.8s|     1 |     0 |114704 |     - |   100M |   0 |  10k|  10k|  12k| 608 |  5 |   0 |   0 | 3.384384e+05 | 4.332491e+05 |  28.01%| unknown
 time | node  | left  |LP iter|LP it/n|mem/heur|mdpt |vars |cons |rows |cuts |sepa|confs|strbr|  dualbound   | primalbound  |  gap   | compl. 
 78.6s|     1 |     0 |115829 |     - |   101M |   0 |  10k|  10k|  12k| 675 |  6 |   0 |   0 | 3.401045e+05 | 4.332491e+05 |  27.39%| unknown
r82.3s|     1 |     0 |115829 |     - |simplero|   0 |  10k|  10k|  12k| 675 |  6 |   0 |   0 | 3.401045e+05 | 4.050657e+05 |  19.10%| unknown
 83.4s|     1 |     0 |117607 |     - |   103M |   0 |  10k|  10k|  12k| 744 |  7 |   0 |   0 | 3.412741e+05 | 4.050657e+05 |  18.69%| unknown
 83.4s|     1 |     0 |117607 |     - |   103M |   0 |  10k|  10k|  12k| 744 |  7 |   0 |   0 | 3.412741e+05 | 4.050657e+05 |  18.69%| unknown
 89.3s|     1 |     0 |128567 |     - |   104M |   0 |  10k|  10k|  12k| 812 |  8 |   0 |   0 | 3.423307e+05 | 4.050657e+05 |  18.33%| unknown
 97.4s|     1 |     0 |140335 |     - |   106M |   0 |  10k|  10k|  12k| 872 |  9 |   0 |   0 | 3.427455e+05 | 4.050657e+05 |  18.18%| unknown
  102s|     1 |     0 |149760 |     - |   108M |   0 |  10k|  10k|  12k| 935 | 10 |   0 |   0 | 3.430996e+05 | 4.050657e+05 |  18.06%| unknown
  119s|     1 |     0 |170403 |     - |   109M |   0 |  10k|  10k|  12k| 991 | 11 |   0 |   0 | 3.432493e+05 | 4.050657e+05 |  18.01%| unknown
  142s|     1 |     0 |188194 |     - |   111M |   0 |  10k|  10k|  12k|1050 | 12 |   0 |   0 | 3.433241e+05 | 4.050657e+05 |  17.98%| unknown
  144s|     1 |     0 |191949 |     - |   112M |   0 |  10k|  10k|  12k|1109 | 13 |   0 |   0 | 3.433664e+05 | 4.050657e+05 |  17.97%| unknown
  145s|     1 |     0 |193671 |     - |   113M |   0 |  10k|  10k|  11k|1162 | 14 |   0 |   0 | 3.433733e+05 | 4.050657e+05 |  17.97%| unknown
  146s|     1 |     0 |193759 |     - |   115M |   0 |  10k|  10k|  12k|1208 | 15 |   0 |   0 | 3.433771e+05 | 4.050657e+05 |  17.97%| unknown
  146s|     1 |     0 |193829 |     - |   116M |   0 |  10k|  10k|  12k|1240 | 16 |   0 |   0 | 3.433783e+05 | 4.050657e+05 |  17.96%| unknown
  146s|     1 |     0 |193906 |     - |   117M |   0 |  10k|  10k|  12k|1269 | 17 |   0 |   0 | 3.433791e+05 | 4.050657e+05 |  17.96%| unknown
  147s|     1 |     0 |195437 |     - |   118M |   0 |  10k|  10k|  12k|1293 | 18 |   0 |   0 | 3.433795e+05 | 4.050657e+05 |  17.96%| unknown
 time | node  | left  |LP iter|LP it/n|mem/heur|mdpt |vars |cons |rows |cuts |sepa|confs|strbr|  dualbound   | primalbound  |  gap   | compl. 
  147s|     1 |     0 |195630 |     - |   119M |   0 |  10k|  10k|  12k|1312 | 19 |   0 |   0 | 3.433856e+05 | 4.050657e+05 |  17.96%| unknown
  147s|     1 |     0 |195690 |     - |   121M |   0 |  10k|  10k|  11k|1333 | 20 |   0 |   0 | 3.433866e+05 | 4.050657e+05 |  17.96%| unknown
  147s|     1 |     0 |195975 |     - |   121M |   0 |  10k|  10k|  11k|1344 | 21 |   0 |   0 | 3.434488e+05 | 4.050657e+05 |  17.94%| unknown
  147s|     1 |     0 |196197 |     - |   121M |   0 |  10k|  10k|  11k|1368 | 22 |   0 |   0 | 3.434538e+05 | 4.050657e+05 |  17.94%| unknown
  148s|     1 |     0 |196236 |     - |   121M |   0 |  10k|  10k|  11k|1384 | 23 |   0 |   0 | 3.434540e+05 | 4.050657e+05 |  17.94%| unknown
  148s|     1 |     0 |196258 |     - |   121M |   0 |  10k|  10k|  11k|1399 | 24 |   0 |   0 | 3.434541e+05 | 4.050657e+05 |  17.94%| unknown
  148s|     1 |     0 |196272 |     - |   121M |   0 |  10k|  10k|  11k|1410 | 25 |   0 |   0 | 3.434542e+05 | 4.050657e+05 |  17.94%| unknown
  148s|     1 |     0 |196277 |     - |   121M |   0 |  10k|  10k|  11k|1413 | 26 |   0 |   0 | 3.434542e+05 | 4.050657e+05 |  17.94%| unknown
  148s|     1 |     0 |196279 |     - |   121M |   0 |  10k|  10k|  11k|1415 | 27 |   0 |   0 | 3.434542e+05 | 4.050657e+05 |  17.94%| unknown
L 298s|     1 |     0 |239536 |     - |    rens|   0 |  10k|  10k|  11k|1415 | 29 |   0 |   0 | 3.434542e+05 | 3.562314e+05 |   3.72%| unknown
  299s|     1 |     0 |239536 |     - |   124M |   0 |  10k|  10k|  11k|1415 | 29 |   0 |   0 | 3.434542e+05 | 3.562314e+05 |   3.72%| unknown
  304s|     1 |     2 |239536 |     - |   124M |   0 |  10k|  10k|  11k|1415 | 31 |   0 |  20 | 3.435019e+05 | 3.562314e+05 |   3.71%| unknown
  845s|   100 |   101 |968826 |8153.1 |   178M |  13 |  10k|  10k|  11k|  13k|  2 |  46 | 266 | 3.480245e+05 | 3.562314e+05 |   2.36%| unknown
 1181s|   200 |   201 |  1288k|5660.1 |   213M |  16 |  10k|  10k|  12k|  24k|  2 | 103 | 309 | 3.483059e+05 | 3.562314e+05 |   2.28%| unknown
L1271s|   201 |   202 |  1288k|5633.1 |crossove|  16 |  10k|  10k|  12k|  24k|  2 | 103 | 312 | 3.483059e+05 | 3.550492e+05 |   1.94%| unknown
 time | node  | left  |LP iter|LP it/n|mem/heur|mdpt |vars |cons |rows |cuts |sepa|confs|strbr|  dualbound   | primalbound  |  gap   | compl. 
 1985s|   300 |   301 |  1837k|5605.4 |   230M |  35 |  10k|  10k|  12k|  33k|  2 | 105 | 375 | 3.485458e+05 | 3.550492e+05 |   1.87%| unknown
t2742s|   343 |   340 |  2534k|6937.3 |  trysol|  38 |  10k|  10k|   0 |  38k|  0 | 105 | 427 | 3.485458e+05 | 3.542683e+05 |   1.64%| unknown
L2982s|   378 |   367 |  2772k|6924.4 |    alns|  38 |  10k|  10k|  12k|  42k|  2 | 118 | 461 | 3.485458e+05 | 3.525371e+05 |   1.15%| unknown
 3267s|   400 |   387 |  2996k|7104.0 |   251M |  41 |  10k|  10k|  12k|  45k|  2 | 118 | 484 | 3.485458e+05 | 3.525371e+05 |   1.15%| unknown

SCIP Status        : solving was interrupted [time limit reached]
Solving Time (sec) : 3600.00
Solving Nodes      : 446
Primal Bound       : +3.52537101989100e+05 (26 solutions)
Dual Bound         : +3.48583801680555e+05
Gap                : 1.13 %
primal_bound = 352537.10198909964, dual_bound = 348583.8016805548, gap = 1.1213856034554526, time = 3603.51
